NAME          
ROWS
 N  OBJ
 L  c1
 L  c2
 L  c3
 L  c4
COLUMNS
    MARKER    'MARKER'                 'INTORG'
    x[1]      c1        155
    x[1]      c2        524
    x[1]      c3        173
    x[1]      c4        458
    x[1]      OBJ       -370
    x[2]      c1        67
    x[2]      c2        286
    x[2]      c3        43
    x[2]      c4        221
    x[2]      OBJ       -196
    x[3]      c1        233
    x[3]      c2        728
    x[3]      c3        720
    x[3]      c4        870
    x[3]      OBJ       -858
    x[4]      c1        355
    x[4]      c2        437
    x[4]      c3        992
    x[4]      c4        336
    x[4]      OBJ       -654
    x[5]      c1        792
    x[5]      c2        801
    x[5]      c3        188
    x[5]      c4        905
    x[5]      OBJ       -574
    x[6]      c1        208
    x[6]      c2        232
    x[6]      c3        836
    x[6]      c4        434
    x[6]      OBJ       -727
    x[7]      c1        542
    x[7]      c2        178
    x[7]      c3        930
    x[7]      c4        172
    x[7]      OBJ       -796
    x[8]      c1        790
    x[8]      c2        959
    x[8]      c3        24
    x[8]      c4        975
    x[8]      OBJ       -531
    x[9]      c1        275
    x[9]      c2        99
    x[9]      c3        415
    x[9]      c4        373
    x[9]      OBJ       -382
    x[10]     c1        884
    x[10]     c2        42
    x[10]     c3        230
    x[10]     c4        201
    x[10]     OBJ       -345
    x[11]     c1        325
    x[11]     c2        355
    x[11]     c3        244
    x[11]     c4        344
    x[11]     OBJ       -810
    x[12]     c1        765
    x[12]     c2        178
    x[12]     c3        120
    x[12]     c4        767
    x[12]     OBJ       -999
    x[13]     c1        920
    x[13]     c2        734
    x[13]     c3        892
    x[13]     c4        227
    x[13]     OBJ       -445
    x[14]     c1        210
    x[14]     c2        41
    x[14]     c3        29
    x[14]     c4        26
    x[14]     OBJ       -909
    x[15]     c1        507
    x[15]     c2        475
    x[15]     c3        675
    x[15]     c4        403
    x[15]     OBJ       -306
    x[16]     c1        306
    x[16]     c2        941
    x[16]     c3        254
    x[16]     c4        303
    x[16]     OBJ       -347
    x[17]     c1        575
    x[17]     c2        356
    x[17]     c3        691
    x[17]     c4        102
    x[17]     OBJ       -60
    x[18]     c1        397
    x[18]     c2        333
    x[18]     c3        227
    x[18]     c4        625
    x[18]     OBJ       -302
    x[19]     c1        7
    x[19]     c2        10
    x[19]     c3        363
    x[19]     c4        557
    x[19]     OBJ       -598
    x[20]     c1        246
    x[20]     c2        86
    x[20]     c3        51
    x[20]     c4        737
    x[20]     OBJ       -362
    x[21]     c1        15
    x[21]     c2        355
    x[21]     c3        214
    x[21]     c4        419
    x[21]     OBJ       -941
    x[22]     c1        340
    x[22]     c2        478
    x[22]     c3        386
    x[22]     c4        91
    x[22]     OBJ       -976
    x[23]     c1        689
    x[23]     c2        18
    x[23]     c3        507
    x[23]     c4        538
    x[23]     OBJ       -648
    x[24]     c1        995
    x[24]     c2        440
    x[24]     c3        845
    x[24]     c4        465
    x[24]     OBJ       -249
    x[25]     c1        229
    x[25]     c2        658
    x[25]     c3        814
    x[25]     c4        724
    x[25]     OBJ       -57
RHS
    rhs       c1        5414
    rhs       c2        4872
    rhs       c3        5432
    rhs       c4        5636
RANGES
BOUNDS
 BV bounds    x[1]
 BV bounds    x[2]
 BV bounds    x[3]
 BV bounds    x[4]
 BV bounds    x[5]
 BV bounds    x[6]
 BV bounds    x[7]
 BV bounds    x[8]
 BV bounds    x[9]
 BV bounds    x[10]
 BV bounds    x[11]
 BV bounds    x[12]
 BV bounds    x[13]
 BV bounds    x[14]
 BV bounds    x[15]
 BV bounds    x[16]
 BV bounds    x[17]
 BV bounds    x[18]
 BV bounds    x[19]
 BV bounds    x[20]
 BV bounds    x[21]
 BV bounds    x[22]
 BV bounds    x[23]
 BV bounds    x[24]
 BV bounds    x[25]
ENDATA
